09-routing/solutions/XSH-n20-k4-32.opt.sol
Route #1: 12 9 11 16
Route #2: 19 4 6 8 13
Route #3: 10 18 3 20 1
Route #4: 7 14 2 15 17 5
Cost 882
